*Heading
 Second part plane tension-bending cantilever, 4 B21 elements
** Job name: SecondPart_B_4Elem Model name: SecondPart_B_4Elem
** Generated by: Abaqus/CAE 2026
*Preprint, echo=NO, model=NO, history=NO, contact=NO
**
** PARTS
**
*Part, name=Cantilever_20x40
*Node
      1,           0.,           0.
      2,  0.300000012,           0.
      3,  0.600000024,           0.
      4,  0.899999976,           0.
      5,   1.20000005,           0.
*Element, type=B21
1, 1, 2
2, 2, 3
3, 3, 4
4, 4, 5
*Nset, nset=_PickedSet2, internal, generate
 1,  5,  1
*Elset, elset=_PickedSet2, internal, generate
 1,  4,  1
** Section: RectBeamSection  Profile: Rect_20mm_40mm
*Beam Section, elset=_PickedSet2, material=Steel_E210GPa, poisson = 0.3, temperature=GRADIENTS, section=RECT
0.02, 0.04
0.,0.,-1.
*End Part
**  
**
** ASSEMBLY
**
*Assembly, name=Assembly
**  
*Instance, name=Cantilever-1, part=Cantilever_20x40
*End Instance
**  
*Nset, nset=FIXED_END, instance=Cantilever-1
 1,
*Nset, nset=FREE_END, instance=Cantilever-1
 5,
*End Assembly
** 
** MATERIALS
** 
*Material, name=Steel_E210GPa
*Elastic
 2.1e+11, 0.3
** 
** BOUNDARY CONDITIONS
** 
** Name: Fixed_Left_End Type: Displacement/Rotation
*Boundary
FIXED_END, 1, 1
FIXED_END, 2, 2
FIXED_END, 6, 6
** ----------------------------------------------------------------
** 
** STEP: LoadStep
** 
*Step, name=LoadStep, nlgeom=NO
*Static
1., 1., 1e-05, 1.
** 
** LOADS
** 
** Name: Axial_Tension_N_10kN   Type: Concentrated force
*Cload, op=NEW
FREE_END, 1, 10000.
** Name: Vertical_Load_P_600N   Type: Concentrated force
*Cload, op=NEW
FREE_END, 2, -600.
** 
** OUTPUT REQUESTS
** 
*Restart, write, frequency=0
** 
** FIELD OUTPUT: F-Output-1
** 
*Output, field, variable=PRESELECT
** 
** HISTORY OUTPUT: FreeEnd_U
** 
*Output, history
*Node Output, nset=FREE_END
U1, U2, UR3
** 
** HISTORY OUTPUT: H-Output-1
** 
*Output, history, variable=PRESELECT
*End Step
