*Heading
 Task 3 Example A plane portal frame
** Job name: Task3_A_PortalFrame Model name: Task3_A_PortalFrame
** Generated by: Abaqus/CAE 2026
*Preprint, echo=NO, model=NO, history=NO, contact=NO
**
** PARTS
**
*Part, name=PortalFrame
*Node
      1,           0.,           0.
      2,           0.,           2.
      3,           3.,           2.
*Element, type=B21
1, 1, 2
2, 2, 3
*Nset, nset=_PickedSet2, internal, generate
 1,  3,  1
*Elset, elset=_PickedSet2, internal
 1, 2
** Section: FrameSection  Profile: EquivalentRect_A_I
*Beam Section, elset=_PickedSet2, material=Steel, poisson = 0.3, temperature=GRADIENTS, section=RECT
0.00912871, 0.219089
0.,0.,-1.
*End Part
**  
**
** ASSEMBLY
**
*Assembly, name=Assembly
**  
*Instance, name=PortalFrame-1, part=PortalFrame
*End Instance
**  
*Nset, nset=N1_FIXED, instance=PortalFrame-1
 1,
*Nset, nset=N2, instance=PortalFrame-1
 2,
*Nset, nset=N3_LOAD, instance=PortalFrame-1
 3,
*End Assembly
** 
** MATERIALS
** 
*Material, name=Steel
*Elastic
 2.1e+11, 0.3
** 
** BOUNDARY CONDITIONS
** 
** Name: Fixed_N1 Type: Displacement/Rotation
*Boundary
N1_FIXED, 1, 1
N1_FIXED, 2, 2
N1_FIXED, 6, 6
** ----------------------------------------------------------------
** 
** STEP: LoadStep
** 
*Step, name=LoadStep, nlgeom=NO
*Static
1., 1., 1e-05, 1.
** 
** LOADS
** 
** Name: Fx_20kN   Type: Concentrated force
*Cload, op=NEW
N3_LOAD, 1, 20000.
** Name: Fy_minus10kN   Type: Concentrated force
*Cload, op=NEW
N3_LOAD, 2, -10000.
** 
** OUTPUT REQUESTS
** 
*Restart, write, frequency=0
** 
** FIELD OUTPUT: F-Output-1
** 
*Output, field
*Node Output
U, RF
*Element Output, directions=YES
S, SF, SM
** 
** HISTORY OUTPUT: N2History
** 
*Output, history
*Node Output, nset=N2
U1, U2, UR3
** 
** HISTORY OUTPUT: N3History
** 
*Node Output, nset=N3_LOAD
U1, U2, UR3
** 
** HISTORY OUTPUT: H-Output-1
** 
*Output, history, variable=PRESELECT
*End Step

