*Heading
 Task 9 rectangular plane-stress plate tension
** Job name: task9_rect_plate_tension Model name: Task9_Rectangular_Plate_Tension
** Generated by: Abaqus/CAE 2026
*Preprint, echo=NO, model=NO, history=NO, contact=NO
**
** PARTS
**
*Part, name=Plate
*Node
      1,           0.,           0.
      2, 0.0500000007,           0.
      3,  0.100000001,           0.
      4,  0.150000006,           0.
      5,  0.200000003,           0.
      6,         0.25,           0.
      7,  0.300000012,           0.
      8,  0.349999994,           0.
      9,  0.400000006,           0.
     10,  0.449999988,           0.
     11,          0.5,           0.
     12,  0.550000012,           0.
     13,  0.600000024,           0.
     14,  0.649999976,           0.
     15,  0.699999988,           0.
     16,         0.75,           0.
     17,  0.800000012,           0.
     18,  0.850000024,           0.
     19,  0.899999976,           0.
     20,  0.949999988,           0.
     21,           1.,           0.
     22,           0., 0.0500000007
     23, 0.0500000007, 0.0500000007
     24,  0.100000001, 0.0500000007
     25,  0.150000006, 0.0500000007
     26,  0.200000003, 0.0500000007
     27,         0.25, 0.0500000007
     28,  0.300000012, 0.0500000007
     29,  0.349999994, 0.0500000007
     30,  0.400000006, 0.0500000007
     31,  0.449999988, 0.0500000007
     32,          0.5, 0.0500000007
     33,  0.550000012, 0.0500000007
     34,  0.600000024, 0.0500000007
     35,  0.649999976, 0.0500000007
     36,  0.699999988, 0.0500000007
     37,         0.75, 0.0500000007
     38,  0.800000012, 0.0500000007
     39,  0.850000024, 0.0500000007
     40,  0.899999976, 0.0500000007
     41,  0.949999988, 0.0500000007
     42,           1., 0.0500000007
     43,           0.,  0.100000001
     44, 0.0500000007,  0.100000001
     45,  0.100000001,  0.100000001
     46,  0.150000006,  0.100000001
     47,  0.200000003,  0.100000001
     48,         0.25,  0.100000001
     49,  0.300000012,  0.100000001
     50,  0.349999994,  0.100000001
     51,  0.400000006,  0.100000001
     52,  0.449999988,  0.100000001
     53,          0.5,  0.100000001
     54,  0.550000012,  0.100000001
     55,  0.600000024,  0.100000001
     56,  0.649999976,  0.100000001
     57,  0.699999988,  0.100000001
     58,         0.75,  0.100000001
     59,  0.800000012,  0.100000001
     60,  0.850000024,  0.100000001
     61,  0.899999976,  0.100000001
     62,  0.949999988,  0.100000001
     63,           1.,  0.100000001
     64,           0.,  0.150000006
     65, 0.0500000007,  0.150000006
     66,  0.100000001,  0.150000006
     67,  0.150000006,  0.150000006
     68,  0.200000003,  0.150000006
     69,         0.25,  0.150000006
     70,  0.300000012,  0.150000006
     71,  0.349999994,  0.150000006
     72,  0.400000006,  0.150000006
     73,  0.449999988,  0.150000006
     74,          0.5,  0.150000006
     75,  0.550000012,  0.150000006
     76,  0.600000024,  0.150000006
     77,  0.649999976,  0.150000006
     78,  0.699999988,  0.150000006
     79,         0.75,  0.150000006
     80,  0.800000012,  0.150000006
     81,  0.850000024,  0.150000006
     82,  0.899999976,  0.150000006
     83,  0.949999988,  0.150000006
     84,           1.,  0.150000006
     85,           0.,  0.200000003
     86, 0.0500000007,  0.200000003
     87,  0.100000001,  0.200000003
     88,  0.150000006,  0.200000003
     89,  0.200000003,  0.200000003
     90,         0.25,  0.200000003
     91,  0.300000012,  0.200000003
     92,  0.349999994,  0.200000003
     93,  0.400000006,  0.200000003
     94,  0.449999988,  0.200000003
     95,          0.5,  0.200000003
     96,  0.550000012,  0.200000003
     97,  0.600000024,  0.200000003
     98,  0.649999976,  0.200000003
     99,  0.699999988,  0.200000003
    100,         0.75,  0.200000003
    101,  0.800000012,  0.200000003
    102,  0.850000024,  0.200000003
    103,  0.899999976,  0.200000003
    104,  0.949999988,  0.200000003
    105,           1.,  0.200000003
    106,           0.,         0.25
    107, 0.0500000007,         0.25
    108,  0.100000001,         0.25
    109,  0.150000006,         0.25
    110,  0.200000003,         0.25
    111,         0.25,         0.25
    112,  0.300000012,         0.25
    113,  0.349999994,         0.25
    114,  0.400000006,         0.25
    115,  0.449999988,         0.25
    116,          0.5,         0.25
    117,  0.550000012,         0.25
    118,  0.600000024,         0.25
    119,  0.649999976,         0.25
    120,  0.699999988,         0.25
    121,         0.75,         0.25
    122,  0.800000012,         0.25
    123,  0.850000024,         0.25
    124,  0.899999976,         0.25
    125,  0.949999988,         0.25
    126,           1.,         0.25
    127,           0.,  0.300000012
    128, 0.0500000007,  0.300000012
    129,  0.100000001,  0.300000012
    130,  0.150000006,  0.300000012
    131,  0.200000003,  0.300000012
    132,         0.25,  0.300000012
    133,  0.300000012,  0.300000012
    134,  0.349999994,  0.300000012
    135,  0.400000006,  0.300000012
    136,  0.449999988,  0.300000012
    137,          0.5,  0.300000012
    138,  0.550000012,  0.300000012
    139,  0.600000024,  0.300000012
    140,  0.649999976,  0.300000012
    141,  0.699999988,  0.300000012
    142,         0.75,  0.300000012
    143,  0.800000012,  0.300000012
    144,  0.850000024,  0.300000012
    145,  0.899999976,  0.300000012
    146,  0.949999988,  0.300000012
    147,           1.,  0.300000012
    148,           0.,  0.349999994
    149, 0.0500000007,  0.349999994
    150,  0.100000001,  0.349999994
    151,  0.150000006,  0.349999994
    152,  0.200000003,  0.349999994
    153,         0.25,  0.349999994
    154,  0.300000012,  0.349999994
    155,  0.349999994,  0.349999994
    156,  0.400000006,  0.349999994
    157,  0.449999988,  0.349999994
    158,          0.5,  0.349999994
    159,  0.550000012,  0.349999994
    160,  0.600000024,  0.349999994
    161,  0.649999976,  0.349999994
    162,  0.699999988,  0.349999994
    163,         0.75,  0.349999994
    164,  0.800000012,  0.349999994
    165,  0.850000024,  0.349999994
    166,  0.899999976,  0.349999994
    167,  0.949999988,  0.349999994
    168,           1.,  0.349999994
    169,           0.,  0.400000006
    170, 0.0500000007,  0.400000006
    171,  0.100000001,  0.400000006
    172,  0.150000006,  0.400000006
    173,  0.200000003,  0.400000006
    174,         0.25,  0.400000006
    175,  0.300000012,  0.400000006
    176,  0.349999994,  0.400000006
    177,  0.400000006,  0.400000006
    178,  0.449999988,  0.400000006
    179,          0.5,  0.400000006
    180,  0.550000012,  0.400000006
    181,  0.600000024,  0.400000006
    182,  0.649999976,  0.400000006
    183,  0.699999988,  0.400000006
    184,         0.75,  0.400000006
    185,  0.800000012,  0.400000006
    186,  0.850000024,  0.400000006
    187,  0.899999976,  0.400000006
    188,  0.949999988,  0.400000006
    189,           1.,  0.400000006
*Element, type=CPS3
  1,   1,   2,  23
  2,  23,  22,   1
  3,   2,   3,  24
  4,  24,  23,   2
  5,   3,   4,  25
  6,  25,  24,   3
  7,   4,   5,  26
  8,  26,  25,   4
  9,   5,   6,  27
 10,  27,  26,   5
 11,   6,   7,  28
 12,  28,  27,   6
 13,   7,   8,  29
 14,  29,  28,   7
 15,   8,   9,  30
 16,  30,  29,   8
 17,   9,  10,  31
 18,  31,  30,   9
 19,  10,  11,  32
 20,  32,  31,  10
 21,  11,  12,  33
 22,  33,  32,  11
 23,  12,  13,  34
 24,  34,  33,  12
 25,  13,  14,  35
 26,  35,  34,  13
 27,  14,  15,  36
 28,  36,  35,  14
 29,  15,  16,  37
 30,  37,  36,  15
 31,  16,  17,  38
 32,  38,  37,  16
 33,  17,  18,  39
 34,  39,  38,  17
 35,  18,  19,  40
 36,  40,  39,  18
 37,  19,  20,  41
 38,  41,  40,  19
 39,  20,  21,  42
 40,  42,  41,  20
 41,  22,  23,  44
 42,  44,  43,  22
 43,  23,  24,  45
 44,  45,  44,  23
 45,  24,  25,  46
 46,  46,  45,  24
 47,  25,  26,  47
 48,  47,  46,  25
 49,  26,  27,  48
 50,  48,  47,  26
 51,  27,  28,  49
 52,  49,  48,  27
 53,  28,  29,  50
 54,  50,  49,  28
 55,  29,  30,  51
 56,  51,  50,  29
 57,  30,  31,  52
 58,  52,  51,  30
 59,  31,  32,  53
 60,  53,  52,  31
 61,  32,  33,  54
 62,  54,  53,  32
 63,  33,  34,  55
 64,  55,  54,  33
 65,  34,  35,  56
 66,  56,  55,  34
 67,  35,  36,  57
 68,  57,  56,  35
 69,  36,  37,  58
 70,  58,  57,  36
 71,  37,  38,  59
 72,  59,  58,  37
 73,  38,  39,  60
 74,  60,  59,  38
 75,  39,  40,  61
 76,  61,  60,  39
 77,  40,  41,  62
 78,  62,  61,  40
 79,  41,  42,  63
 80,  63,  62,  41
 81,  43,  44,  65
 82,  65,  64,  43
 83,  44,  45,  66
 84,  66,  65,  44
 85,  45,  46,  67
 86,  67,  66,  45
 87,  46,  47,  68
 88,  68,  67,  46
 89,  47,  48,  69
 90,  69,  68,  47
 91,  48,  49,  70
 92,  70,  69,  48
 93,  49,  50,  71
 94,  71,  70,  49
 95,  50,  51,  72
 96,  72,  71,  50
 97,  51,  52,  73
 98,  73,  72,  51
 99,  52,  53,  74
100,  74,  73,  52
101,  53,  54,  75
102,  75,  74,  53
103,  54,  55,  76
104,  76,  75,  54
105,  55,  56,  77
106,  77,  76,  55
107,  56,  57,  78
108,  78,  77,  56
109,  57,  58,  79
110,  79,  78,  57
111,  58,  59,  80
112,  80,  79,  58
113,  59,  60,  81
114,  81,  80,  59
115,  60,  61,  82
116,  82,  81,  60
117,  61,  62,  83
118,  83,  82,  61
119,  62,  63,  84
120,  84,  83,  62
121,  64,  65,  86
122,  86,  85,  64
123,  65,  66,  87
124,  87,  86,  65
125,  66,  67,  88
126,  88,  87,  66
127,  67,  68,  89
128,  89,  88,  67
129,  68,  69,  90
130,  90,  89,  68
131,  69,  70,  91
132,  91,  90,  69
133,  70,  71,  92
134,  92,  91,  70
135,  71,  72,  93
136,  93,  92,  71
137,  72,  73,  94
138,  94,  93,  72
139,  73,  74,  95
140,  95,  94,  73
141,  74,  75,  96
142,  96,  95,  74
143,  75,  76,  97
144,  97,  96,  75
145,  76,  77,  98
146,  98,  97,  76
147,  77,  78,  99
148,  99,  98,  77
149,  78,  79, 100
150, 100,  99,  78
151,  79,  80, 101
152, 101, 100,  79
153,  80,  81, 102
154, 102, 101,  80
155,  81,  82, 103
156, 103, 102,  81
157,  82,  83, 104
158, 104, 103,  82
159,  83,  84, 105
160, 105, 104,  83
161,  85,  86, 107
162, 107, 106,  85
163,  86,  87, 108
164, 108, 107,  86
165,  87,  88, 109
166, 109, 108,  87
167,  88,  89, 110
168, 110, 109,  88
169,  89,  90, 111
170, 111, 110,  89
171,  90,  91, 112
172, 112, 111,  90
173,  91,  92, 113
174, 113, 112,  91
175,  92,  93, 114
176, 114, 113,  92
177,  93,  94, 115
178, 115, 114,  93
179,  94,  95, 116
180, 116, 115,  94
181,  95,  96, 117
182, 117, 116,  95
183,  96,  97, 118
184, 118, 117,  96
185,  97,  98, 119
186, 119, 118,  97
187,  98,  99, 120
188, 120, 119,  98
189,  99, 100, 121
190, 121, 120,  99
191, 100, 101, 122
192, 122, 121, 100
193, 101, 102, 123
194, 123, 122, 101
195, 102, 103, 124
196, 124, 123, 102
197, 103, 104, 125
198, 125, 124, 103
199, 104, 105, 126
200, 126, 125, 104
201, 106, 107, 128
202, 128, 127, 106
203, 107, 108, 129
204, 129, 128, 107
205, 108, 109, 130
206, 130, 129, 108
207, 109, 110, 131
208, 131, 130, 109
209, 110, 111, 132
210, 132, 131, 110
211, 111, 112, 133
212, 133, 132, 111
213, 112, 113, 134
214, 134, 133, 112
215, 113, 114, 135
216, 135, 134, 113
217, 114, 115, 136
218, 136, 135, 114
219, 115, 116, 137
220, 137, 136, 115
221, 116, 117, 138
222, 138, 137, 116
223, 117, 118, 139
224, 139, 138, 117
225, 118, 119, 140
226, 140, 139, 118
227, 119, 120, 141
228, 141, 140, 119
229, 120, 121, 142
230, 142, 141, 120
231, 121, 122, 143
232, 143, 142, 121
233, 122, 123, 144
234, 144, 143, 122
235, 123, 124, 145
236, 145, 144, 123
237, 124, 125, 146
238, 146, 145, 124
239, 125, 126, 147
240, 147, 146, 125
241, 127, 128, 149
242, 149, 148, 127
243, 128, 129, 150
244, 150, 149, 128
245, 129, 130, 151
246, 151, 150, 129
247, 130, 131, 152
248, 152, 151, 130
249, 131, 132, 153
250, 153, 152, 131
251, 132, 133, 154
252, 154, 153, 132
253, 133, 134, 155
254, 155, 154, 133
255, 134, 135, 156
256, 156, 155, 134
257, 135, 136, 157
258, 157, 156, 135
259, 136, 137, 158
260, 158, 157, 136
261, 137, 138, 159
262, 159, 158, 137
263, 138, 139, 160
264, 160, 159, 138
265, 139, 140, 161
266, 161, 160, 139
267, 140, 141, 162
268, 162, 161, 140
269, 141, 142, 163
270, 163, 162, 141
271, 142, 143, 164
272, 164, 163, 142
273, 143, 144, 165
274, 165, 164, 143
275, 144, 145, 166
276, 166, 165, 144
277, 145, 146, 167
278, 167, 166, 145
279, 146, 147, 168
280, 168, 167, 146
281, 148, 149, 170
282, 170, 169, 148
283, 149, 150, 171
284, 171, 170, 149
285, 150, 151, 172
286, 172, 171, 150
287, 151, 152, 173
288, 173, 172, 151
289, 152, 153, 174
290, 174, 173, 152
291, 153, 154, 175
292, 175, 174, 153
293, 154, 155, 176
294, 176, 175, 154
295, 155, 156, 177
296, 177, 176, 155
297, 156, 157, 178
298, 178, 177, 156
299, 157, 158, 179
300, 179, 178, 157
301, 158, 159, 180
302, 180, 179, 158
303, 159, 160, 181
304, 181, 180, 159
305, 160, 161, 182
306, 182, 181, 160
307, 161, 162, 183
308, 183, 182, 161
309, 162, 163, 184
310, 184, 183, 162
311, 163, 164, 185
312, 185, 184, 163
313, 164, 165, 186
314, 186, 185, 164
315, 165, 166, 187
316, 187, 186, 165
317, 166, 167, 188
318, 188, 187, 166
319, 167, 168, 189
320, 189, 188, 167
*Nset, nset=Plate_all, generate
   1,  189,    1
*Elset, elset=Plate_all, generate
   1,  320,    1
** Section: Plane_stress_section
*Solid Section, elset=Plate_all, material=Steel_linear_elastic
0.01,
*End Part
**  
**
** ASSEMBLY
**
*Assembly, name=Assembly
**  
*Instance, name=Plate-1, part=Plate
*End Instance
**  
*Nset, nset=LeftEdge, instance=Plate-1, generate
   1,  169,   21
*Elset, elset=LeftEdge, instance=Plate-1, generate
   2,  282,   40
*Nset, nset=RightEdge, instance=Plate-1, generate
  21,  189,   21
*Elset, elset=RightEdge, instance=Plate-1, generate
  39,  319,   40
*Nset, nset=RightNode_21, instance=Plate-1
 21,
*Nset, nset=RightNode_42, instance=Plate-1
 42,
*Nset, nset=RightNode_63, instance=Plate-1
 63,
*Nset, nset=RightNode_84, instance=Plate-1
 84,
*Nset, nset=RightNode_105, instance=Plate-1
 105,
*Nset, nset=RightNode_126, instance=Plate-1
 126,
*Nset, nset=RightNode_147, instance=Plate-1
 147,
*Nset, nset=RightNode_168, instance=Plate-1
 168,
*Nset, nset=RightNode_189, instance=Plate-1
 189,
*End Assembly
** 
** MATERIALS
** 
*Material, name=Steel_linear_elastic
*Elastic
 2.1e+11, 0.3
** 
** BOUNDARY CONDITIONS
** 
** Name: BC_Left_Fixed Type: Displacement/Rotation
*Boundary
LeftEdge, 1, 1
LeftEdge, 2, 2
** ----------------------------------------------------------------
** 
** STEP: Load
** 
*Step, name=Load, nlgeom=NO
*Static
1., 1., 1e-05, 1.
** 
** LOADS
** 
** Name: Load_Right_21   Type: Concentrated force
*Cload
RightNode_21, 1, 25000.
** Name: Load_Right_42   Type: Concentrated force
*Cload
RightNode_42, 1, 50000.
** Name: Load_Right_63   Type: Concentrated force
*Cload
RightNode_63, 1, 50000.
** Name: Load_Right_84   Type: Concentrated force
*Cload
RightNode_84, 1, 50000.
** Name: Load_Right_105   Type: Concentrated force
*Cload
RightNode_105, 1, 50000.
** Name: Load_Right_126   Type: Concentrated force
*Cload
RightNode_126, 1, 50000.
** Name: Load_Right_147   Type: Concentrated force
*Cload
RightNode_147, 1, 50000.
** Name: Load_Right_168   Type: Concentrated force
*Cload
RightNode_168, 1, 50000.
** Name: Load_Right_189   Type: Concentrated force
*Cload
RightNode_189, 1, 25000.
** 
** OUTPUT REQUESTS
** 
*Restart, write, frequency=0
** 
** FIELD OUTPUT: F-Output-1
** 
*Output, field, variable=PRESELECT
** 
** HISTORY OUTPUT: H-Output-1
** 
*Output, history, variable=PRESELECT
*End Step
