*Heading
 Task 6 Example C: three-node, two-element 3D space frame
** Job name: ExampleC_SpaceFrame Model name: ExampleC_SpaceFrame
** Generated by: Abaqus/CAE 2026
*Preprint, echo=NO, model=NO, history=NO, contact=NO
**
** PARTS
**
*Part, name=SpaceFrame3D
*Node
      1,           0.,           0.,           1.
      2,   1.20000005,  0.800000012,           1.
      3,           0.,           0.,           0.
*Element, type=B31
1, 1, 2
2, 3, 1
*Nset, nset=_PickedSet2, internal, generate
 1,  3,  1
*Elset, elset=_PickedSet2, internal
 1, 2
** Section: CircularBeamSection  Profile: Circle_d30mm
*Beam Section, elset=_PickedSet2, material=Steel_E210_G80, poisson = 0.3125, temperature=GRADIENTS, section=CIRC
0.015
0.,1.,0.
*End Part
**  
**
** ASSEMBLY
**
*Assembly, name=Assembly
**  
*Instance, name=SpaceFrame3D-1, part=SpaceFrame3D
*End Instance
**  
*Nset, nset=ALL_BEAMS, instance=SpaceFrame3D-1, generate
 1,  3,  1
*Elset, elset=ALL_BEAMS, instance=SpaceFrame3D-1
 1, 2
*Nset, nset=NODE1_FIXED, instance=SpaceFrame3D-1
 3,
*Nset, nset=NODE2, instance=SpaceFrame3D-1
 1,
*Nset, nset=NODE3_LOAD, instance=SpaceFrame3D-1
 2,
*End Assembly
** 
** MATERIALS
** 
*Material, name=Steel_E210_G80
*Elastic
 2.1e+11, 0.3125
** 
** BOUNDARY CONDITIONS
** 
** Name: Fixed_Node1 Type: Displacement/Rotation
*Boundary
NODE1_FIXED, 1, 1
NODE1_FIXED, 2, 2
NODE1_FIXED, 3, 3
NODE1_FIXED, 4, 4
NODE1_FIXED, 5, 5
NODE1_FIXED, 6, 6
** ----------------------------------------------------------------
** 
** STEP: LoadStep
** 
*Step, name=LoadStep, nlgeom=NO
*Static
1., 1., 1e-05, 1.
** 
** LOADS
** 
** Name: Fy_minus800N_Node3   Type: Concentrated force
*Cload, op=NEW
NODE3_LOAD, 2, -800.
** Name: Mx_150Nm_Node3   Type: Moment
*Cload, op=NEW
NODE3_LOAD, 4, 150.
** 
** OUTPUT REQUESTS
** 
*Restart, write, frequency=0
** 
** FIELD OUTPUT: F-Output-1
** 
*Output, field, variable=PRESELECT
** 
** HISTORY OUTPUT: Node1_RF_RM
** 
*Output, history
*Node Output, nset=NODE1_FIXED
RF1, RF2, RF3, RM1, RM2, RM3
** 
** HISTORY OUTPUT: Node2_U_R
** 
*Node Output, nset=NODE2
U1, U2, U3, UR1, UR2, UR3
** 
** HISTORY OUTPUT: Node3_U_R
** 
*Node Output, nset=NODE3_LOAD
U1, U2, U3, UR1, UR2, UR3
** 
** HISTORY OUTPUT: H-Output-1
** 
*Output, history, variable=PRESELECT
*End Step
