*Heading
 Task 7 axial bar: L=1000 mm, E=200000 N/mm2, A=100 mm2, two T2D2 elements, equivalent nodal distributed load.
** Job name: Task7_Axial_Bar_2Elem Model name: Task7_Axial_Bar_2Elem
** Generated by: Abaqus/CAE 2026
*Preprint, echo=NO, model=NO, history=NO, contact=NO
**
** PARTS
**
*Part, name=Bar_1D_T2D2
*Node
      1,           0.,           0.
      2,         500.,           0.
      3,        1000.,           0.
*Element, type=T2D2
1, 1, 2
2, 2, 3
*Nset, nset=ALL_NODES, generate
 1,  3,  1
*Nset, nset=LEFT_NODE
 1,
*Nset, nset=MID_NODE
 2,
*Nset, nset=RIGHT_NODE
 3,
*Elset, elset=ALL_ELEMS
 1, 2
** Section: BarSection
*Solid Section, elset=ALL_ELEMS, material=Steel_E200GPa
100.,
*End Part
**  
**
** ASSEMBLY
**
*Assembly, name=Assembly
**  
*Instance, name=Bar-1, part=Bar_1D_T2D2
*End Instance
**  
*End Assembly
** 
** MATERIALS
** 
*Material, name=Steel_E200GPa
*Elastic
200000., 0.3
** 
** BOUNDARY CONDITIONS
** 
** Name: Left_axial_fixed Type: Displacement/Rotation
*Boundary
Bar-1.LEFT_NODE, 1, 1
Bar-1.LEFT_NODE, 2, 2
** Name: Suppress_transverse_motion Type: Displacement/Rotation
*Boundary
Bar-1.ALL_NODES, 2, 2
** ----------------------------------------------------------------
** 
** STEP: Axial_Load
** 
*Step, name=Axial_Load, nlgeom=NO
*Static
1., 1., 1e-05, 1.
** 
** LOADS
** 
** Name: Eq_dist_load_left   Type: Concentrated force
*Cload
Bar-1.LEFT_NODE, 1, 5000.
** Name: Eq_dist_load_mid   Type: Concentrated force
*Cload
Bar-1.MID_NODE, 1, 10000.
** Name: Right_P_plus_dist   Type: Concentrated force
*Cload
Bar-1.RIGHT_NODE, 1, 1.005e+06
** 
** OUTPUT REQUESTS
** 
*Restart, write, frequency=0
** 
** FIELD OUTPUT: F-Output-1
** 
*Output, field
*Node Output, variable=PRESELECT
*Element Output, directions=YES
E, S
** 
** HISTORY OUTPUT: H-Output-1
** 
*Output, history, variable=PRESELECT
*End Step
