*Heading
 Task 6 Example D: spatial bending-torsion circular cantilever
** Job name: ExampleD_BendingTorsion Model name: ExampleD_BendingTorsion
** Generated by: Abaqus/CAE 2026
*Preprint, echo=NO, model=NO, history=NO, contact=NO
**
** PARTS
**
*Part, name=CircularCantilever
*Node
      1,           0.,           0.,           0.
      2,        0.125,           0.,           0.
      3,         0.25,           0.,           0.
      4,        0.375,           0.,           0.
      5,          0.5,           0.,           0.
      6,        0.625,           0.,           0.
      7,         0.75,           0.,           0.
      8,        0.875,           0.,           0.
      9,           1.,           0.,           0.
*Element, type=B31
1, 1, 2
2, 2, 3
3, 3, 4
4, 4, 5
5, 5, 6
6, 6, 7
7, 7, 8
8, 8, 9
*Nset, nset=_PickedSet2, internal, generate
 1,  9,  1
*Elset, elset=_PickedSet2, internal, generate
 1,  8,  1
** Section: CircularBeamSection  Profile: Circle_d30mm
*Beam Section, elset=_PickedSet2, material=Steel_E210_G80, poisson = 0.3125, temperature=GRADIENTS, section=CIRC
0.015
0.,1.,0.
*End Part
**  
**
** ASSEMBLY
**
*Assembly, name=Assembly
**  
*Instance, name=CircularCantilever-1, part=CircularCantilever
*End Instance
**  
*Nset, nset=BEAM, instance=CircularCantilever-1, generate
 1,  9,  1
*Elset, elset=BEAM, instance=CircularCantilever-1, generate
 1,  8,  1
*Nset, nset=FIXED_END, instance=CircularCantilever-1
 1,
*Nset, nset=FREE_END, instance=CircularCantilever-1
 9,
*End Assembly
** 
** MATERIALS
** 
*Material, name=Steel_E210_G80
*Elastic
 2.1e+11, 0.3125
** 
** BOUNDARY CONDITIONS
** 
** Name: Fixed_Left_End Type: Displacement/Rotation
*Boundary
FIXED_END, 1, 1
FIXED_END, 2, 2
FIXED_END, 3, 3
FIXED_END, 4, 4
FIXED_END, 5, 5
FIXED_END, 6, 6
** ----------------------------------------------------------------
** 
** STEP: LoadStep
** 
*Step, name=LoadStep, nlgeom=NO
*Static
1., 1., 1e-05, 1.
** 
** LOADS
** 
** Name: Torsion_T_120Nm   Type: Moment
*Cload, op=NEW
FREE_END, 4, 120.
** Name: Transverse_Load_P_500N   Type: Concentrated force
*Cload, op=NEW
FREE_END, 2, -500.
** 
** OUTPUT REQUESTS
** 
*Restart, write, frequency=0
** 
** FIELD OUTPUT: F-Output-1
** 
*Output, field, variable=PRESELECT
** 
** HISTORY OUTPUT: FixedEnd_RF_RM
** 
*Element Output, directions=YES
SF, SM
*Output, history
*Node Output, nset=FIXED_END
RF1, RF2, RF3, RM1, RM2, RM3
** 
** HISTORY OUTPUT: FreeEnd_U_R
** 
*Node Output, nset=FREE_END
U1, U2, U3, UR1, UR2, UR3
** 
** HISTORY OUTPUT: H-Output-1
** 
*Output, history, variable=PRESELECT
*End Step
