*Heading
 Task5 accurate B31 cantilever beam analysis, SI units
** Job name: Task5_Cantilever_Beam_Job Model name: Task5_Cantilever_Beam
** Generated by: Abaqus/CAE 2026
*Preprint, echo=NO, model=NO, history=NO, contact=NO
**
** PARTS
**
*Part, name=CantileverBeam_B31
*Node
      1,           0.,           0.,           0.
      2, 0.0500000007,           0.,           0.
      3,  0.100000001,           0.,           0.
      4,  0.150000006,           0.,           0.
      5,  0.200000003,           0.,           0.
      6,         0.25,           0.,           0.
      7,  0.300000012,           0.,           0.
      8,  0.349999994,           0.,           0.
      9,  0.400000006,           0.,           0.
     10,  0.449999988,           0.,           0.
     11,          0.5,           0.,           0.
     12,  0.550000012,           0.,           0.
     13,  0.600000024,           0.,           0.
     14,  0.649999976,           0.,           0.
     15,  0.699999988,           0.,           0.
     16,         0.75,           0.,           0.
     17,  0.800000012,           0.,           0.
     18,  0.850000024,           0.,           0.
     19,  0.899999976,           0.,           0.
     20,  0.949999988,           0.,           0.
     21,           1.,           0.,           0.
*Element, type=B31
 1,  1,  2
 2,  2,  3
 3,  3,  4
 4,  4,  5
 5,  5,  6
 6,  6,  7
 7,  7,  8
 8,  8,  9
 9,  9, 10
10, 10, 11
11, 11, 12
12, 12, 13
13, 13, 14
14, 14, 15
15, 15, 16
16, 16, 17
17, 17, 18
18, 18, 19
19, 19, 20
20, 20, 21
*Nset, nset=_PickedSet2, internal, generate
  1,  21,   1
*Elset, elset=_PickedSet2, internal, generate
  1,  20,   1
*Nset, nset=SET_FIXED_END
 1,
*Nset, nset=SET_FREE_END
 21,
*Nset, nset=SET_BEAM_EDGE, generate
  1,  21,   1
*Elset, elset=SET_BEAM_EDGE, generate
  1,  20,   1
** Section: B31_Rectangular_Section  Profile: Rectangular_20mm_by_40mm
*Beam Section, elset=_PickedSet2, material=Steel_E_210GPa_nu_0p3, poisson = 0.3, temperature=GRADIENTS, section=RECT
0.02, 0.04
0.,0.,1.
*End Part
**  
**
** ASSEMBLY
**
*Assembly, name=Assembly
**  
*Instance, name=CantileverBeam_B31-1, part=CantileverBeam_B31
*End Instance
**  
*End Assembly
** 
** MATERIALS
** 
*Material, name=Steel_E_210GPa_nu_0p3
*Elastic
 2.1e+11, 0.3
** 
** BOUNDARY CONDITIONS
** 
** Name: BC_Left_End_Fixed Type: Symmetry/Antisymmetry/Encastre
*Boundary
CantileverBeam_B31-1.SET_FIXED_END, ENCASTRE
** ----------------------------------------------------------------
** 
** STEP: Step-1_Static_Load
** 
*Step, name=Step-1_Static_Load, nlgeom=NO
Static analysis of B31 cantilever beam under vertical tip load
*Static
1., 1., 1e-05, 1.
** 
** LOADS
** 
** Name: Load_Free_End_Downward_1000N   Type: Concentrated force
*Cload
CantileverBeam_B31-1.SET_FREE_END, 2, -1000.
** 
** OUTPUT REQUESTS
** 
*Restart, write, frequency=0
** 
** FIELD OUTPUT: F-Output-1
** 
*Output, field
*Node Output
RF, U
*Element Output, directions=YES
S, 
** 
** HISTORY OUTPUT: H_Free_End_Displacement_Reaction
** 
*Output, history
*Node Output, nset=CantileverBeam_B31-1.SET_FREE_END
RF1, RF2, RF3, U1, U2, U3
** 
** HISTORY OUTPUT: H-Output-1
** 
*Output, history, variable=PRESELECT
*End Step
